Maximize
  190 p1 + 200 p2 + 100 p3 + 300 p4 + 400 p5 + 150 p6 + 570 p7 + 70 p8 
  - 1000 a1 - 3000 a2 - 700 a3 - 2000 a4 - 1500 a5
  - 102 c1 - 88 c2 - 157 c3 - 234 c4
Subject To
  p1 + p2 + p3 + p4 + p5 + p6 + p7 + p8 <= 100
  p1 + p2 - 200 a1 <= 0
  p3 + p4 - 200 a2 <= 0
  p5 + p6 - 200 a3 <= 0 
  p7 - 200 a4 <= 0
  p8 - 200 a5 <= 0
  p1 <= 30
  p2 <= 30
  p3 <= 30
  p4 <= 30
  p5 <= 30
  p6 <= 30
  p7 <= 30
  p8 <= 30
  c1 - p1 - p3 = 0
  c2 - p2 = 0
  c3 - p4 - p5 - p7 = 0
  c4 - p6 - p8 = 0
Binary
  a1 a2 a3 a4 a5
general
  p1 p2 p3 p4 p5 p6 p7 p8
